{"OBJ_VAL": 205, "status": "optimal", "Name": "scp64", "time": "N/A", "X": [0, 1, 2, 3, 4, 5, 6, 7, 8, 9, 10, 11, 13, 14, 16, 17, 18, 19, 22, 23, 25, 30, 33, 35, 37, 41, 43, 45, 48, 51, 52, 53, 54, 55, 56, 57, 58, 63, 67, 69, 70, 73, 75, 100, 107, 129, 135, 136, 173], "Pi": [1.0, -0.0, -0.0, 1.0, -0.0, -0.0, 5.0, -0.0, 1.0, 1.0, -0.0, -0.0, -0.0, -0.0, 1.0, -0.0, -0.0, -0.0, -0.0, 4.0, -0.0, -0.0, -0.0, -0.0, 3.0, -0.0, -0.0, -0.0, -0.0, -0.0, -0.0, -0.0, -0.0, -0.0, -0.0, 1.0, -0.0, -0.0, -0.0, 13.0, 5.0, -0.0, -0.0, -0.0, -0.0, -0.0, 2.0, -0.0, -0.0, -0.0, -0.0, -0.0, 2.0, 5.0, -0.0, -0.0, 3.0, 1.0, -0.0, -0.0, -0.0, 0.0, -0.0, 1.0, -0.0, 1.0, -0.0, 3.0, -0.0, -0.0, -0.0, 3.0, -0.0, -0.0, -0.0, 4.0, -0.0, 7.0, -0.0, -0.0, -0.0, -0.0, -0.0, 2.0, 0.0, -0.0, 0.0, 5.0, 2.0, 4.0, 1.0, 2.0, 4.0, -0.0, -0.0, -0.0, -0.0, 1.0, -0.0, -0.0, -0.0, -0.0, -0.0, 1.0, -0.0, -0.0, -0.0, -0.0, -0.0, 2.0, -0.0, -0.0, -0.0, -0.0, -0.0, 1.0, -0.0, -0.0, -0.0, -0.0, -0.0, -0.0, -0.0, -0.0, -0.0, -0.0, 5.0, 1.0, -0.0, -0.0, -0.0, 3.0, 2.0, -0.0, 2.0, -0.0, -0.0, -0.0, 1.0, 0.0, -0.0, -0.0, -0.0, 1.0, 1.0, -0.0, -0.0, -0.0, -0.0, 2.0, -0.0, -0.0, -0.0, -0.0, -0.0, -0.0, -0.0, -0.0, -0.0, -0.0, 1.0, -0.0, 1.0, -0.0, -0.0, -0.0, 3.0, -0.0, -0.0, 1.0, 0.0, -0.0, -0.0, -0.0, -0.0, -0.0, -0.0, -0.0, -0.0, -0.0, 1.0, -0.0, -0.0, 0.0, -0.0, -0.0, -0.0, -0.0, 1.0, 2.0, 2.0, -0.0, -0.0, 2.0, -0.0, -0.0, 1.0, 2.0, -0.0, 1.0], "Dj": [0.0, 0.0, 0.0, 0.0, 0.0, 0.0, 0.0, 0.0, 0.0, 0.0, 0.0, 0.0, 1.0, 0.0, 0.0, 0.0, 0.0, 0.0, 0.0, 0.0, 2.0, 1.0, 0.0, 0.0, 0.0, 0.0, 0.0, 0.0, 0.0, 1.0, 0.0, 0.0, 0.0, 0.0, 0.0, 0.0, 0.0, 0.0, 0.0, 1.0, 2.0, 0.0, 0.0, 0.0, 3.0, 0.0, 1.0, 2.0, 0.0, 0.0, 1.0, 0.0, 0.0, 0.0, 0.0, 0.0, 0.0, 0.0, 0.0, 0.0, 1.0, 4.0, 0.0, 0.0, 4.0, 5.0, 3.0, 0.0, 1.0, 0.0, 0.0, 0.0, 2.0, 0.0, 4.0, 0.0, 2.0, 6.0, 4.0, 3.0, 1.0, 0.0, 3.0, 6.0, 5.0, 5.0, 1.0, 5.0, 0.0, 7.0, 5.0, 5.0, 0.0, 9.0, 1.0, 7.0, 6.0, 0.0, 5.0, 5.0, 0.0, 4.0, 5.0, 6.0, 3.0, 4.0, 7.0, 0.0, 6.0, 7.0, 6.0, 3.0, 10.0, 6.0, 10.0, 4.0, 8.0, 2.0, 5.0, 4.0, 5.0, 1.0, 6.0, 6.0, 4.0, 3.0, 0.0, 10.0, 7.0, 0.0, 9.0, 8.0, 0.0, 2.0, 10.0, 0.0, 0.0, 4.0, 8.0, 13.0, 8.0, 4.0, 3.0, 5.0, 12.0, 14.0, 9.0, 5.0, 12.0, 12.0, 3.0, 12.0, 14.0, 0.0, 7.0, 7.0, 9.0, 10.0, 7.0, 15.0, 1.0, 10.0, 13.0, 13.0, 12.0, 8.0, 6.0, 8.0, 8.0, 13.0, 9.0, 10.0, 10.0, 0.0, 12.0, 14.0, 12.0, 12.0, 12.0, 14.0, 10.0, 8.0, 16.0, 4.0, 8.0, 14.0, 15.0, 13.0, 7.0, 9.0, 12.0, 14.0, 7.0, 1.0, 2.0, 16.0, 18.0, 2.0, 13.0, 18.0, 13.0, 14.0, 9.0, 16.0, 10.0, 14.0, 5.0, 11.0, 6.0, 18.0, 20.0, 20.0, 18.0, 9.0, 16.0, 17.0, 7.0, 16.0, 18.0, 20.0, 12.0, 20.0, 7.0, 12.0, 14.0, 19.0, 20.0, 16.0, 11.0, 18.0, 15.0, 21.0, 19.0, 22.0, 18.0, 23.0, 8.0, 11.0, 23.0, 24.0, 21.0, 15.0, 16.0, 21.0, 19.0, 15.0, 22.0, 24.0, 12.0, 16.0, 14.0, 19.0, 23.0, 23.0, 23.0, 20.0, 17.0, 23.0, 15.0, 25.0, 15.0, 9.0, 22.0, 24.0, 21.0, 25.0, 20.0, 20.0, 17.0, 10.0, 18.0, 19.0, 17.0, 23.0, 8.0, 16.0, 23.0, 19.0, 19.0, 22.0, 6.0, 21.0, 23.0, 25.0, 19.0, 0.0, 25.0, 21.0, 13.0, 27.0, 28.0, 7.0, 13.0, 28.0, 27.0, 24.0, 24.0, 25.0, 24.0, 12.0, 20.0, 25.0, 29.0, 30.0, 27.0, 18.0, 29.0, 23.0, 29.0, 24.0, 22.0, 29.0, 17.0, 31.0, 18.0, 30.0, 27.0, 26.0, 26.0, 32.0, 32.0, 28.0, 26.0, 31.0, 28.0, 29.0, 31.0, 23.0, 27.0, 29.0, 15.0, 26.0, 31.0, 13.0, 32.0, 30.0, 33.0, 23.0, 31.0, 28.0, 23.0, 31.0, 27.0, 27.0, 30.0, 32.0, 29.0, 28.0, 18.0, 14.0, 31.0, 23.0, 24.0, 21.0, 31.0, 31.0, 32.0, 34.0, 34.0, 23.0, 27.0, 12.0, 26.0, 30.0, 30.0, 30.0, 31.0, 32.0, 18.0, 28.0, 33.0, 30.0, 30.0, 30.0, 32.0, 34.0, 33.0, 36.0, 33.0, 37.0, 33.0, 17.0, 36.0, 36.0, 38.0, 36.0, 32.0, 29.0, 32.0, 38.0, 34.0, 34.0, 36.0, 33.0, 38.0, 34.0, 34.0, 31.0, 37.0, 33.0, 17.0, 15.0, 36.0, 40.0, 34.0, 38.0, 36.0, 39.0, 29.0, 31.0, 36.0, 36.0, 37.0, 36.0, 34.0, 34.0, 41.0, 40.0, 21.0, 32.0, 37.0, 38.0, 40.0, 40.0, 28.0, 35.0, 34.0, 32.0, 37.0, 42.0, 41.0, 31.0, 30.0, 23.0, 25.0, 36.0, 13.0, 37.0, 38.0, 42.0, 37.0, 26.0, 39.0, 32.0, 39.0, 29.0, 35.0, 43.0, 34.0, 42.0, 34.0, 41.0, 37.0, 39.0, 43.0, 42.0, 43.0, 43.0, 34.0, 38.0, 44.0, 44.0, 46.0, 45.0, 38.0, 44.0, 35.0, 41.0, 42.0, 44.0, 39.0, 47.0, 42.0, 41.0, 47.0, 35.0, 44.0, 35.0, 41.0, 46.0, 41.0, 44.0, 45.0, 38.0, 43.0, 27.0, 41.0, 45.0, 34.0, 34.0, 47.0, 44.0, 48.0, 47.0, 49.0, 43.0, 41.0, 30.0, 34.0, 41.0, 50.0, 37.0, 42.0, 40.0, 45.0, 46.0, 46.0, 46.0, 39.0, 46.0, 42.0, 50.0, 50.0, 50.0, 36.0, 45.0, 46.0, 51.0, 51.0, 44.0, 51.0, 47.0, 46.0, 44.0, 45.0, 48.0, 49.0, 49.0, 50.0, 50.0, 44.0, 51.0, 46.0, 49.0, 46.0, 50.0, 49.0, 48.0, 52.0, 48.0, 52.0, 49.0, 49.0, 45.0, 51.0, 51.0, 48.0, 50.0, 44.0, 46.0, 44.0, 48.0, 54.0, 46.0, 49.0, 50.0, 56.0, 51.0, 51.0, 47.0, 33.0, 50.0, 47.0, 52.0, 49.0, 57.0, 44.0, 57.0, 55.0, 45.0, 47.0, 53.0, 46.0, 53.0, 48.0, 46.0, 54.0, 48.0, 52.0, 52.0, 57.0, 49.0, 42.0, 45.0, 54.0, 59.0, 53.0, 52.0, 55.0, 58.0, 47.0, 54.0, 49.0, 53.0, 56.0, 56.0, 56.0, 48.0, 57.0, 52.0, 50.0, 55.0, 52.0, 41.0, 56.0, 50.0, 55.0, 61.0, 51.0, 53.0, 61.0, 54.0, 54.0, 58.0, 57.0, 57.0, 58.0, 41.0, 59.0, 61.0, 57.0, 58.0, 56.0, 48.0, 58.0, 62.0, 61.0, 59.0, 62.0, 55.0, 55.0, 64.0, 64.0, 58.0, 64.0, 63.0, 58.0, 64.0, 54.0, 57.0, 65.0, 60.0, 60.0, 57.0, 55.0, 59.0, 62.0, 61.0, 60.0, 41.0, 61.0, 58.0, 56.0, 63.0, 61.0, 63.0, 65.0, 64.0, 58.0, 52.0, 62.0, 62.0, 59.0, 63.0, 62.0, 59.0, 58.0, 67.0, 60.0, 64.0, 59.0, 67.0, 59.0, 63.0, 64.0, 63.0, 61.0, 63.0, 63.0, 57.0, 66.0, 65.0, 67.0, 66.0, 64.0, 59.0, 62.0, 49.0, 62.0, 53.0, 61.0, 61.0, 64.0, 67.0, 69.0, 67.0, 66.0, 65.0, 70.0, 67.0, 61.0, 57.0, 69.0, 60.0, 69.0, 65.0, 68.0, 69.0, 63.0, 65.0, 54.0, 65.0, 71.0, 65.0, 55.0, 63.0, 72.0, 64.0, 71.0, 63.0, 67.0, 72.0, 70.0, 70.0, 73.0, 72.0, 54.0, 68.0, 65.0, 70.0, 63.0, 70.0, 66.0, 69.0, 73.0, 73.0, 69.0, 69.0, 66.0, 65.0, 69.0, 69.0, 67.0, 62.0, 70.0, 70.0, 68.0, 75.0, 49.0, 73.0, 74.0, 75.0, 74.0, 67.0, 70.0, 69.0, 72.0, 66.0, 63.0, 64.0, 69.0, 73.0, 77.0, 75.0, 71.0, 76.0, 71.0, 72.0, 77.0, 77.0, 59.0, 68.0, 65.0, 76.0, 66.0, 72.0, 69.0, 70.0, 72.0, 76.0, 72.0, 73.0, 71.0, 76.0, 77.0, 70.0, 76.0, 55.0, 70.0, 70.0, 76.0, 77.0, 67.0, 77.0, 75.0, 75.0, 74.0, 77.0, 66.0, 77.0, 69.0, 69.0, 75.0, 79.0, 71.0, 78.0, 81.0, 76.0, 75.0, 74.0, 67.0, 79.0, 80.0, 80.0, 76.0, 78.0, 71.0, 81.0, 78.0, 78.0, 76.0, 80.0, 74.0, 77.0, 77.0, 79.0, 79.0, 75.0, 75.0, 82.0, 81.0, 71.0, 82.0, 80.0, 82.0, 77.0, 76.0, 80.0, 79.0, 83.0, 77.0, 75.0, 71.0, 77.0, 83.0, 74.0, 71.0, 82.0, 79.0, 84.0, 80.0, 84.0, 84.0, 77.0, 77.0, 82.0, 83.0, 81.0, 75.0, 73.0, 83.0, 79.0, 82.0, 85.0, 86.0, 85.0, 82.0, 79.0, 77.0, 85.0, 86.0, 84.0, 84.0, 77.0, 87.0, 86.0, 85.0, 84.0, 88.0, 74.0, 86.0, 80.0, 87.0, 78.0, 76.0, 90.0, 77.0, 89.0, 87.0, 89.0, 86.0, 79.0, 79.0, 77.0, 82.0, 89.0, 90.0, 78.0, 85.0, 90.0, 89.0, 82.0, 82.0, 84.0, 84.0, 87.0, 90.0, 90.0, 85.0, 92.0, 92.0, 85.0, 89.0, 84.0, 84.0, 88.0, 85.0, 85.0, 91.0, 90.0, 93.0, 90.0, 90.0, 87.0, 90.0, 88.0, 90.0, 89.0, 91.0, 90.0, 94.0, 87.0, 94.0, 79.0, 88.0, 90.0, 92.0, 81.0, 88.0, 87.0, 81.0, 93.0, 94.0, 87.0, 94.0, 94.0, 92.0, 94.0, 92.0, 90.0, 87.0, 82.0, 88.0, 95.0, 95.0, 73.0, 94.0, 85.0, 91.0, 87.0, 96.0, 95.0, 93.0, 91.0, 91.0, 92.0, 95.0, 91.0, 94.0, 96.0, 88.0, 97.0, 95.0, 90.0, 94.0, 94.0, 97.0, 93.0, 98.0, 96.0, 96.0, 99.0, 94.0, 97.0, 93.0, 97.0, 99.0, 90.0, 95.0, 77.0, 92.0, 97.0, 91.0, 95.0, 92.0, 95.0, 94.0, 94.0, 91.0, 98.0], "slack": [0.0, -0.6666666666666666, -0.33333333333333304, 0.0, -0.6666666666666666, -2.6666666666666665, 0.0, -2.333333333333333, 0.0, 0.0, -0.6666666666666666, 2.220446049250313e-16, -1.0, -1.0, 0.0, -0.3333333333333335, -1.6666666666666665, -1.3333333333333335, -1.3333333333333333, 0.0, -1.0, -2.666666666666666, -2.0, -0.6666666666666669, 0.0, -1.0, -0.3333333333333335, 0.0, -2.333333333333333, -1.3333333333333335, -0.3333333333333335, -2.0, -1.0, -3.0, -1.6666666666666667, 0.0, -1.3333333333333335, -1.0000000000000004, -0.33333333333333337, 0.0, 0.0, -2.0, 0.0, -0.33333333333333337, -2.0, -1.0, 0.0, -2.0, -1.3333333333333335, -0.33333333333333315, 2.220446049250313e-16, -3.0, 0.0, 0.0, -0.6666666666666666, -2.0, 0.0, 0.0, -2.6666666666666665, -1.6666666666666665, -0.33333333333333326, 0.0, -0.33333333333333326, 0.0, -2.3333333333333335, 0.0, -1.3333333333333335, 0.0, -3.6666666666666665, -2.0, -0.6666666666666665, 0.0, -1.0, -1.3333333333333335, -0.6666666666666666, 0.0, -1.0, 0.0, -1.6666666666666665, -0.6666666666666666, -1.3333333333333333, -3.0, -1.0, 0.0, 0.0, -1.3333333333333335, 0.0, 0.0, 0.0, 0.0, 0.0, 0.0, 0.0, -1.6666666666666667, -1.6666666666666665, -1.6666666666666667, -0.6666666666666666, 0.0, 0.0, -1.0, -0.33333333333333337, -1.0, -3.666666666666667, 0.0, -2.6666666666666665, -1.0, -2.0, -1.3333333333333335, 0.0, 0.0, -3.333333333333333, -1.3333333333333335, -0.6666666666666665, -2.6666666666666665, -2.333333333333333, 0.0, -1.0, -0.6666666666666667, -1.6666666666666665, -1.0, 0.0, -3.666666666666667, -0.6666666666666665, 0.0, -2.6666666666666665, -2.0, 0.0, 0.0, 3.3306690738754696e-16, -1.0, -0.6666666666666666, 0.0, 0.0, 0.0, 0.0, -1.9999999999999996, 0.0, -0.33333333333333337, 0.0, 0.0, -0.6666666666666669, -0.6666666666666669, -1.3333333333333335, 0.0, 0.0, -2.3333333333333335, 0.0, -0.6666666666666666, -0.9999999999999998, 0.0, 0.0, -0.6666666666666671, -2.0, -0.33333333333333326, 0.0, 1.1102230246251565e-16, -1.0, -1.6666666666666665, -0.33333333333333337, -1.3333333333333335, 0.0, -1.3333333333333333, 0.0, -0.9999999999999999, -1.0, -4.0, 0.0, -1.0, -1.333333333333333, 0.0, 0.0, -1.0, -1.0, -1.333333333333333, -1.3333333333333335, -0.6666666666666665, -0.33333333333333337, -3.0, -0.6666666666666667, -1.9999999999999998, 0.0, -1.6666666666666667, -1.3333333333333335, 0.0, -1.666666666666667, -0.33333333333333337, -1.0, -2.0, 0.0, 0.0, 0.0, -1.0, -2.3333333333333335, 0.0, -0.6666666666666667, 0.0, 0.0, 0.0, -0.6666666666666666, 0.0], "density": 0.049285, "feasible": true, "X_len": 49, "mode": "AAD", "factor": 0, "obj_val": 129.0, "x": [1.0, 1.0, 1.0, 1.0, 1.0, 1.0, 1.0, 1.0, 1.0, 0.6666666666666665, 0.6666666666666665, 0.6666666666666666, 0.0, 0.6666666666666669, 1.0, 0.0, 0.33333333333333337, 0.6666666666666666, 1.0, 1.0, 0.0, 0.0, 0.33333333333333337, 1.0, 0.0, 0.3333333333333335, 0.0, 0.0, 0.0, 0.0, 0.33333333333333315, 0.0, 0.0, 0.33333333333333326, 0.0, 0.6666666666666669, 0.0, 0.33333333333333326, 0.0, 0.0, 0.0, 1.0, 0.0, 0.33333333333333337, 0.0, 1.0, 0.0, 0.0, 1.0, 0.0, 0.0, 0.6666666666666666, 1.0, 0.6666666666666667, 0.33333333333333337, 1.0, 1.0, 0.6666666666666666, 1.0, 0.0, 0.0, 0.0, 0.0, 1.0, 0.0, 0.0, 0.0, 1.0, 0.0, 0.33333333333333337, 0.6666666666666666, 0.0, 0.0, 1.0, 0.0, 0.33333333333333315, 0.0, 0.0, 0.0, 0.0, 0.0, 0.0, 0.0, 0.0, 0.0, 0.0, 0.0, 0.0, 0.0, 0.0, 0.0, 0.0, 0.0, 0.0, 0.0, 0.0, 0.0, 0.0, 0.0, 0.0, 0.33333333333333337, 0.0, 0.0, 0.0, 0.0, 0.0, 0.0, 0.3333333333333335, 0.0, 0.0, 0.0, 0.0, 0.0, 0.0, 0.0, 0.0, 0.0, 0.0, 0.0, 0.0, 0.0, 0.0, 0.0, 0.0, 0.0, 0.0, 0.0, 0.0, 0.0, 0.6666666666666666, 0.0, 0.0, 0.0, 0.0, 0.0, 0.33333333333333337, 0.6666666666666666, 0.0, 0.0, 0.0, 0.0, 0.0, 0.0, 0.0, 0.0, 0.0, 0.0, 0.0, 0.0, 0.0, 0.0, 0.0, 0.0, 0.0, 0.0, 0.0, 0.0, 0.0, 0.0, 0.0, 0.0, 0.0, 0.0, 0.0, 0.0, 0.0, 0.0, 0.0, 0.0, 0.0, 0.0, 0.0, 0.0, 0.33333333333333337, 0.0, 0.0, 0.0, 0.0, 0.0, 0.0, 0.0, 0.0, 0.0, 0.0, 0.0, 0.0, 0.0, 0.0, 0.0, 0.0, 0.0, 0.0, 0.0, 0.0, 0.0, 0.0, 0.0, 0.0, 0.0, 0.0, 0.0, 0.0, 0.0, 0.0, 0.0, 0.0, 0.0, 0.0, 0.0, 0.0, 0.0, 0.0, 0.0, 0.0, 0.0, 0.0, 0.0, 0.0, 0.0, 0.0, 0.0, 0.0, 0.0, 0.0, 0.0, 0.0, 0.0, 0.0, 0.0, 0.0, 0.0, 0.0, 0.0, 0.0, 0.0, 0.0, 0.0, 0.0, 0.0, 0.0, 0.0, 0.0, 0.0, 0.0, 0.0, 0.0, 0.0, 0.0, 0.0, 0.0, 0.0, 0.0, 0.0, 0.0, 0.0, 0.0, 0.0, 0.0, 0.0, 0.0, 0.0, 0.0, 0.0, 0.0, 0.0, 0.0, 0.0, 0.0, 0.0, 0.0, 0.0, 0.0, 0.0, 0.0, 0.0, 0.0, 0.0, 0.0, 0.0, 0.0, 0.0, 0.0, 0.0, 0.0, 0.0, 0.0, 0.0, 0.0, 0.0, 0.0, 0.0, 0.0, 0.0, 0.0, 0.0, 0.0, 0.0, 0.0, 0.0, 0.0, 0.0, 0.0, 0.0, 0.0, 0.0, 0.0, 0.0, 0.0, 0.0, 0.0, 0.0, 0.0, 0.0, 0.0, 0.0, 0.0, 0.0, 0.0, 0.0, 0.0, 0.0, 0.0, 0.0, 0.0, 0.0, 0.0, 0.0, 0.0, 0.0, 0.0, 0.0, 0.0, 0.0, 0.0, 0.0, 0.0, 0.0, 0.0, 0.0, 0.0, 0.0, 0.0, 0.0, 0.0, 0.0, 0.0, 0.0, 0.0, 0.0, 0.0, 0.0, 0.0, 0.0, 0.0, 0.0, 0.0, 0.0, 0.0, 0.0, 0.0, 0.0, 0.0, 0.0, 0.0, 0.0, 0.0, 0.0, 0.0, 0.0, 0.0, 0.0, 0.0, 0.0, 0.0, 0.0, 0.0, 0.0, 0.0, 0.0, 0.0, 0.0, 0.0, 0.0, 0.0, 0.0, 0.0, 0.0, 0.0, 0.0, 0.0, 0.0, 0.0, 0.0, 0.0, 0.0, 0.0, 0.0, 0.0, 0.0, 0.0, 0.0, 0.0, 0.0, 0.0, 0.0, 0.0, 0.0, 0.0, 0.0, 0.0, 0.0, 0.0, 0.0, 0.0, 0.0, 0.0, 0.0, 0.0, 0.0, 0.0, 0.0, 0.0, 0.0, 0.0, 0.0, 0.0, 0.0, 0.0, 0.0, 0.0, 0.0, 0.0, 0.0, 0.0, 0.0, 0.0, 0.0, 0.0, 0.0, 0.0, 0.0, 0.0, 0.0, 0.0, 0.0, 0.0, 0.0, 0.0, 0.0, 0.0, 0.0, 0.0, 0.0, 0.0, 0.0, 0.0, 0.0, 0.0, 0.0, 0.0, 0.0, 0.0, 0.0, 0.0, 0.0, 0.0, 0.0, 0.0, 0.0, 0.0, 0.0, 0.0, 0.0, 0.0, 0.0, 0.0, 0.0, 0.0, 0.0, 0.0, 0.0, 0.0, 0.0, 0.0, 0.0, 0.0, 0.0, 0.0, 0.0, 0.0, 0.0, 0.0, 0.0, 0.0, 0.0, 0.0, 0.0, 0.0, 0.0, 0.0, 0.0, 0.0, 0.0, 0.0, 0.0, 0.0, 0.0, 0.0, 0.0, 0.0, 0.0, 0.0, 0.0, 0.0, 0.0, 0.0, 0.0, 0.0, 0.0, 0.0, 0.0, 0.0, 0.0, 0.0, 0.0, 0.0, 0.0, 0.0, 0.0, 0.0, 0.0, 0.0, 0.0, 0.0, 0.0, 0.0, 0.0, 0.0, 0.0, 0.0, 0.0, 0.0, 0.0, 0.0, 0.0, 0.0, 0.0, 0.0, 0.0, 0.0, 0.0, 0.0, 0.0, 0.0, 0.0, 0.0, 0.0, 0.0, 0.0, 0.0, 0.0, 0.0, 0.0, 0.0, 0.0, 0.0, 0.0, 0.0, 0.0, 0.0, 0.0, 0.0, 0.0, 0.0, 0.0, 0.0, 0.0, 0.0, 0.0, 0.0, 0.0, 0.0, 0.0, 0.0, 0.0, 0.0, 0.0, 0.0, 0.0, 0.0, 0.0, 0.0, 0.0, 0.0, 0.0, 0.0, 0.0, 0.0, 0.0, 0.0, 0.0, 0.0, 0.0, 0.0, 0.0, 0.0, 0.0, 0.0, 0.0, 0.0, 0.0, 0.0, 0.0, 0.0, 0.0, 0.0, 0.0, 0.0, 0.0, 0.0, 0.0, 0.0, 0.0, 0.0, 0.0, 0.0, 0.0, 0.0, 0.0, 0.0, 0.0, 0.0, 0.0, 0.0, 0.0, 0.0, 0.0, 0.0, 0.0, 0.0, 0.0, 0.0, 0.0, 0.0, 0.0, 0.0, 0.0, 0.0, 0.0, 0.0, 0.0, 0.0, 0.0, 0.0, 0.0, 0.0, 0.0, 0.0, 0.0, 0.0, 0.0, 0.0, 0.0, 0.0, 0.0, 0.0, 0.0, 0.0, 0.0, 0.0, 0.0, 0.0, 0.0, 0.0, 0.0, 0.0, 0.0, 0.0, 0.0, 0.0, 0.0, 0.0, 0.0, 0.0, 0.0, 0.0, 0.0, 0.0, 0.0, 0.0, 0.0, 0.0, 0.0, 0.0, 0.0, 0.0, 0.0, 0.0, 0.0, 0.0, 0.0, 0.0, 0.0, 0.0, 0.0, 0.0, 0.0, 0.0, 0.0, 0.0, 0.0, 0.0, 0.0, 0.0, 0.0, 0.0, 0.0, 0.0, 0.0, 0.0, 0.0, 0.0, 0.0, 0.0, 0.0, 0.0, 0.0, 0.0, 0.0, 0.0, 0.0, 0.0, 0.0, 0.0, 0.0, 0.0, 0.0, 0.0, 0.0, 0.0, 0.0, 0.0, 0.0, 0.0, 0.0, 0.0, 0.0, 0.0, 0.0, 0.0, 0.0, 0.0, 0.0, 0.0, 0.0, 0.0, 0.0, 0.0, 0.0, 0.0, 0.0, 0.0, 0.0, 0.0, 0.0, 0.0, 0.0, 0.0, 0.0, 0.0, 0.0, 0.0, 0.0, 0.0, 0.0, 0.0, 0.0, 0.0, 0.0, 0.0, 0.0, 0.0, 0.0, 0.0, 0.0, 0.0, 0.0, 0.0, 0.0, 0.0, 0.0, 0.0, 0.0, 0.0, 0.0, 0.0, 0.0, 0.0, 0.0, 0.0, 0.0, 0.0, 0.0, 0.0, 0.0, 0.0, 0.0, 0.0, 0.0, 0.0, 0.0, 0.0, 0.0, 0.0, 0.0, 0.0, 0.0, 0.0, 0.0, 0.0, 0.0, 0.0, 0.0, 0.0, 0.0, 0.0, 0.0, 0.0, 0.0, 0.0, 0.0, 0.0, 0.0, 0.0, 0.0, 0.0, 0.0, 0.0, 0.0, 0.0, 0.0, 0.0, 0.0, 0.0, 0.0, 0.0, 0.0, 0.0, 0.0, 0.0, 0.0, 0.0, 0.0, 0.0, 0.0, 0.0, 0.0, 0.0, 0.0, 0.0, 0.0, 0.0, 0.0, 0.0, 0.0, 0.0, 0.0, 0.0, 0.0, 0.0, 0.0, 0.0, 0.0, 0.0, 0.0, 0.0, 0.0, 0.0, 0.0, 0.0, 0.0, 0.0, 0.0, 0.0, 0.0, 0.0, 0.0, 0.0, 0.0, 0.0, 0.0, 0.0, 0.0, 0.0, 0.0, 0.0, 0.0, 0.0, 0.0, 0.0, 0.0, 0.0, 0.0, 0.0, 0.0, 0.0, 0.0, 0.0, 0.0, 0.0, 0.0, 0.0, 0.0, 0.0, 0.0, 0.0, 0.0, 0.0, 0.0, 0.0, 0.0, 0.0, 0.0, 0.0, 0.0, 0.0, 0.0, 0.0, 0.0, 0.0, 0.0, 0.0, 0.0, 0.0, 0.0, 0.0, 0.0, 0.0, 0.0, 0.0, 0.0, 0.0, 0.0, 0.0, 0.0, 0.0, 0.0, 0.0, 0.0, 0.0, 0.0, 0.0, 0.0, 0.0, 0.0, 0.0, 0.0, 0.0, 0.0, 0.0, 0.0, 0.0, 0.0, 0.0, 0.0, 0.0, 0.0, 0.0, 0.0, 0.0, 0.0, 0.0, 0.0, 0.0, 0.0, 0.0, 0.0, 0.0, 0.0, 0.0, 0.0, 0.0, 0.0, 0.0, 0.0, 0.0, 0.0, 0.0, 0.0, 0.0, 0.0, 0.0, 0.0, 0.0, 0.0, 0.0, 0.0, 0.0, 0.0, 0.0]}